120
150
32
93
71
34
49
99
82
68
92
33
79
95
45
54
59
91
75
78
37
72
45
38
25
35
82
36
35
78
33
25
88
67
88
53
32
61
71
99
22
57
77
35
59
32
29
84
61
82
68
49
82
68
38
25
75
42
61
88
40
67
86
82
68
32
76
39
53
44
53
43
35
49
47
54
33
74
86
47
73
77
66
54
32
32
78
95
42
59
90
95
72
78
54
55
39
81
95
20
35
57
93
71
34
45
53
97
78
75
68
71
32
29
59
91
30
42
42
66
53
93
